
(set-logic HORN)
(declare-rel assign_27_11_286_abs (Int Int Int Int Int Int Int Int Int Int Int))
(declare-rel assert_26_11_277_abs (Int Int Int Int Int Int Int Int Int Int Int))
(declare-rel assert_25_11_256_abs (Int Int Int Int Int Int Int Int Int Int Int))
(declare-rel while_24_1_289_abs (Int Int Int Int Int Int Int Int Int Int Int))
(declare-rel assign_23_8_206_abs (Int Int Int Int Int Int Int Int Int Int Int))
(declare-rel assert_21_8_200_abs (Int Int Int Int Int Int Int Int Int Int Int))
(declare-rel assign_19_5_158_abs (Int Int Int Int Int Int Int Int Int Int Int))
(declare-rel arrayassign_18_5_149_abs (Int Int Int Int Int Int Int Int Int Int Int))
(declare-rel assert_17_12_132_abs (Int Int Int Int Int Int Int Int Int Int Int))
(declare-rel while_16_1_161_abs (Int Int Int Int Int Int Int Int Int Int Int))
(declare-rel assign_15_1_85_abs (Int Int Int Int Int Int Int Int Int Int Int))
(declare-rel assign_12_8_79_abs (Int Int Int Int Int Int Int Int Int Int Int))
(declare-rel assign_11_1_67_abs (Int Int Int Int Int Int Int Int Int Int Int))
(declare-rel end_abs (Int Int Int Int Int Int Int Int Int Int Int))
(declare-rel start_abs (Int Int Int Int Int Int Int Int Int Int Int));Number of predicates (nodes) = 15
;Number of variables = 5
;Number of clauses = 21
;
(assert (forall ( (vacker_1 Int) (vacker_0 Int) (vacker_11 Int) (vacker_01 Int) (Nb Int) (Na Int) (i Int) (i1 Int) (i2 Int) (i3 Int) (i4 Int)) (=> (and (=> (= i3 i4) (= vacker_0 vacker_1)) (=> (= i1 i2) (= vacker_01 vacker_11))) (start_abs i4 vacker_1 i3 vacker_0 i2 vacker_11 i1 vacker_01 Nb Na i))))
(assert (forall ( (i Int) (Na Int) (Nb Int) (vacker_1 Int) (vacker_0 Int) (vacker_11 Int) (vacker_01 Int) (i1 Int) (i2 Int) (i3 Int) (i4 Int)) (=> (and (=> (= i1 i2) (= vacker_0 vacker_1)) (=> (= i3 i4) (= vacker_01 vacker_11)) (start_abs i3 vacker_01 i3 vacker_01 i1 vacker_0 i1 vacker_0 Nb Na i) (start_abs i3 vacker_01 i3 vacker_01 i1 vacker_0 i2 vacker_1 Nb Na i) (start_abs i3 vacker_01 i3 vacker_01 i2 vacker_1 i1 vacker_0 Nb Na i) (start_abs i3 vacker_01 i3 vacker_01 i2 vacker_1 i2 vacker_1 Nb Na i) (start_abs i3 vacker_01 i4 vacker_11 i1 vacker_0 i1 vacker_0 Nb Na i) (start_abs i3 vacker_01 i4 vacker_11 i1 vacker_0 i2 vacker_1 Nb Na i) (start_abs i3 vacker_01 i4 vacker_11 i2 vacker_1 i1 vacker_0 Nb Na i) (start_abs i3 vacker_01 i4 vacker_11 i2 vacker_1 i2 vacker_1 Nb Na i) (start_abs i4 vacker_11 i3 vacker_01 i1 vacker_0 i1 vacker_0 Nb Na i) (start_abs i4 vacker_11 i3 vacker_01 i1 vacker_0 i2 vacker_1 Nb Na i) (start_abs i4 vacker_11 i3 vacker_01 i2 vacker_1 i1 vacker_0 Nb Na i) (start_abs i4 vacker_11 i3 vacker_01 i2 vacker_1 i2 vacker_1 Nb Na i) (start_abs i4 vacker_11 i4 vacker_11 i1 vacker_0 i1 vacker_0 Nb Na i) (start_abs i4 vacker_11 i4 vacker_11 i1 vacker_0 i2 vacker_1 Nb Na i) (start_abs i4 vacker_11 i4 vacker_11 i2 vacker_1 i1 vacker_0 Nb Na i) (start_abs i4 vacker_11 i4 vacker_11 i2 vacker_1 i2 vacker_1 Nb Na i)) (assign_11_1_67_abs i4 vacker_11 i3 vacker_01 i2 vacker_1 i1 vacker_0 Nb Na i))))
;
;(assign)  Na := Support.random()
(assert (forall ( (rnd Int) (i Int) (Na Int) (Nb Int) (vacker_1 Int) (vacker_0 Int) (vacker_11 Int) (vacker_01 Int) (i1 Int) (i2 Int) (i3 Int) (i4 Int)) (=> (and (=> (= i1 i2) (= vacker_0 vacker_1)) (=> (= i3 i4) (= vacker_01 vacker_11)) (assign_11_1_67_abs i3 vacker_01 i3 vacker_01 i1 vacker_0 i1 vacker_0 Nb Na i) (assign_11_1_67_abs i3 vacker_01 i3 vacker_01 i1 vacker_0 i2 vacker_1 Nb Na i) (assign_11_1_67_abs i3 vacker_01 i3 vacker_01 i2 vacker_1 i1 vacker_0 Nb Na i) (assign_11_1_67_abs i3 vacker_01 i3 vacker_01 i2 vacker_1 i2 vacker_1 Nb Na i) (assign_11_1_67_abs i3 vacker_01 i4 vacker_11 i1 vacker_0 i1 vacker_0 Nb Na i) (assign_11_1_67_abs i3 vacker_01 i4 vacker_11 i1 vacker_0 i2 vacker_1 Nb Na i) (assign_11_1_67_abs i3 vacker_01 i4 vacker_11 i2 vacker_1 i1 vacker_0 Nb Na i) (assign_11_1_67_abs i3 vacker_01 i4 vacker_11 i2 vacker_1 i2 vacker_1 Nb Na i) (assign_11_1_67_abs i4 vacker_11 i3 vacker_01 i1 vacker_0 i1 vacker_0 Nb Na i) (assign_11_1_67_abs i4 vacker_11 i3 vacker_01 i1 vacker_0 i2 vacker_1 Nb Na i) (assign_11_1_67_abs i4 vacker_11 i3 vacker_01 i2 vacker_1 i1 vacker_0 Nb Na i) (assign_11_1_67_abs i4 vacker_11 i3 vacker_01 i2 vacker_1 i2 vacker_1 Nb Na i) (assign_11_1_67_abs i4 vacker_11 i4 vacker_11 i1 vacker_0 i1 vacker_0 Nb Na i) (assign_11_1_67_abs i4 vacker_11 i4 vacker_11 i1 vacker_0 i2 vacker_1 Nb Na i) (assign_11_1_67_abs i4 vacker_11 i4 vacker_11 i2 vacker_1 i1 vacker_0 Nb Na i) (assign_11_1_67_abs i4 vacker_11 i4 vacker_11 i2 vacker_1 i2 vacker_1 Nb Na i)) (assign_12_8_79_abs i4 vacker_11 i3 vacker_01 i2 vacker_1 i1 vacker_0 Nb rnd i))))
;
;(assign)  Nb := Support.random()
(assert (forall ( (rnd Int) (i Int) (Na Int) (Nb Int) (vacker_1 Int) (vacker_0 Int) (vacker_11 Int) (vacker_01 Int) (i1 Int) (i2 Int) (i3 Int) (i4 Int)) (=> (and (=> (= i1 i2) (= vacker_0 vacker_1)) (=> (= i3 i4) (= vacker_01 vacker_11)) (assign_12_8_79_abs i3 vacker_01 i3 vacker_01 i1 vacker_0 i1 vacker_0 Nb Na i) (assign_12_8_79_abs i3 vacker_01 i3 vacker_01 i1 vacker_0 i2 vacker_1 Nb Na i) (assign_12_8_79_abs i3 vacker_01 i3 vacker_01 i2 vacker_1 i1 vacker_0 Nb Na i) (assign_12_8_79_abs i3 vacker_01 i3 vacker_01 i2 vacker_1 i2 vacker_1 Nb Na i) (assign_12_8_79_abs i3 vacker_01 i4 vacker_11 i1 vacker_0 i1 vacker_0 Nb Na i) (assign_12_8_79_abs i3 vacker_01 i4 vacker_11 i1 vacker_0 i2 vacker_1 Nb Na i) (assign_12_8_79_abs i3 vacker_01 i4 vacker_11 i2 vacker_1 i1 vacker_0 Nb Na i) (assign_12_8_79_abs i3 vacker_01 i4 vacker_11 i2 vacker_1 i2 vacker_1 Nb Na i) (assign_12_8_79_abs i4 vacker_11 i3 vacker_01 i1 vacker_0 i1 vacker_0 Nb Na i) (assign_12_8_79_abs i4 vacker_11 i3 vacker_01 i1 vacker_0 i2 vacker_1 Nb Na i) (assign_12_8_79_abs i4 vacker_11 i3 vacker_01 i2 vacker_1 i1 vacker_0 Nb Na i) (assign_12_8_79_abs i4 vacker_11 i3 vacker_01 i2 vacker_1 i2 vacker_1 Nb Na i) (assign_12_8_79_abs i4 vacker_11 i4 vacker_11 i1 vacker_0 i1 vacker_0 Nb Na i) (assign_12_8_79_abs i4 vacker_11 i4 vacker_11 i1 vacker_0 i2 vacker_1 Nb Na i) (assign_12_8_79_abs i4 vacker_11 i4 vacker_11 i2 vacker_1 i1 vacker_0 Nb Na i) (assign_12_8_79_abs i4 vacker_11 i4 vacker_11 i2 vacker_1 i2 vacker_1 Nb Na i)) (assign_15_1_85_abs i4 vacker_11 i3 vacker_01 i2 vacker_1 i1 vacker_0 rnd Na i))))
;
;(assign)  i := Na
(assert (forall ( (i Int) (Na Int) (Nb Int) (vacker_1 Int) (vacker_0 Int) (vacker_11 Int) (vacker_01 Int) (i1 Int) (i2 Int) (i3 Int) (i4 Int)) (=> (and (=> (= i1 i2) (= vacker_0 vacker_1)) (=> (= i3 i4) (= vacker_01 vacker_11)) (assign_15_1_85_abs i3 vacker_01 i3 vacker_01 i1 vacker_0 i1 vacker_0 Nb Na i) (assign_15_1_85_abs i3 vacker_01 i3 vacker_01 i1 vacker_0 i2 vacker_1 Nb Na i) (assign_15_1_85_abs i3 vacker_01 i3 vacker_01 i2 vacker_1 i1 vacker_0 Nb Na i) (assign_15_1_85_abs i3 vacker_01 i3 vacker_01 i2 vacker_1 i2 vacker_1 Nb Na i) (assign_15_1_85_abs i3 vacker_01 i4 vacker_11 i1 vacker_0 i1 vacker_0 Nb Na i) (assign_15_1_85_abs i3 vacker_01 i4 vacker_11 i1 vacker_0 i2 vacker_1 Nb Na i) (assign_15_1_85_abs i3 vacker_01 i4 vacker_11 i2 vacker_1 i1 vacker_0 Nb Na i) (assign_15_1_85_abs i3 vacker_01 i4 vacker_11 i2 vacker_1 i2 vacker_1 Nb Na i) (assign_15_1_85_abs i4 vacker_11 i3 vacker_01 i1 vacker_0 i1 vacker_0 Nb Na i) (assign_15_1_85_abs i4 vacker_11 i3 vacker_01 i1 vacker_0 i2 vacker_1 Nb Na i) (assign_15_1_85_abs i4 vacker_11 i3 vacker_01 i2 vacker_1 i1 vacker_0 Nb Na i) (assign_15_1_85_abs i4 vacker_11 i3 vacker_01 i2 vacker_1 i2 vacker_1 Nb Na i) (assign_15_1_85_abs i4 vacker_11 i4 vacker_11 i1 vacker_0 i1 vacker_0 Nb Na i) (assign_15_1_85_abs i4 vacker_11 i4 vacker_11 i1 vacker_0 i2 vacker_1 Nb Na i) (assign_15_1_85_abs i4 vacker_11 i4 vacker_11 i2 vacker_1 i1 vacker_0 Nb Na i) (assign_15_1_85_abs i4 vacker_11 i4 vacker_11 i2 vacker_1 i2 vacker_1 Nb Na i)) (while_16_1_161_abs i4 vacker_11 i3 vacker_01 i2 vacker_1 i1 vacker_0 Nb Na Na))))
;
;(while)   while((i<(Na+Nb)))
(assert (forall ( (vacker_1 Int) (vacker_0 Int) (vacker_11 Int) (vacker_01 Int) (Nb Int) (Na Int) (i Int) (i1 Int) (i2 Int) (i3 Int) (i4 Int)) (=> (and (=> (= i3 i4) (= vacker_0 vacker_1)) (=> (= i1 i2) (= vacker_01 vacker_11)) (while_16_1_161_abs i3 vacker_0 i3 vacker_0 i1 vacker_01 i1 vacker_01 Nb Na i) (while_16_1_161_abs i3 vacker_0 i3 vacker_0 i1 vacker_01 i2 vacker_11 Nb Na i) (while_16_1_161_abs i3 vacker_0 i3 vacker_0 i2 vacker_11 i1 vacker_01 Nb Na i) (while_16_1_161_abs i3 vacker_0 i3 vacker_0 i2 vacker_11 i2 vacker_11 Nb Na i) (while_16_1_161_abs i3 vacker_0 i4 vacker_1 i1 vacker_01 i1 vacker_01 Nb Na i) (while_16_1_161_abs i3 vacker_0 i4 vacker_1 i1 vacker_01 i2 vacker_11 Nb Na i) (while_16_1_161_abs i3 vacker_0 i4 vacker_1 i2 vacker_11 i1 vacker_01 Nb Na i) (while_16_1_161_abs i3 vacker_0 i4 vacker_1 i2 vacker_11 i2 vacker_11 Nb Na i) (while_16_1_161_abs i4 vacker_1 i3 vacker_0 i1 vacker_01 i1 vacker_01 Nb Na i) (while_16_1_161_abs i4 vacker_1 i3 vacker_0 i1 vacker_01 i2 vacker_11 Nb Na i) (while_16_1_161_abs i4 vacker_1 i3 vacker_0 i2 vacker_11 i1 vacker_01 Nb Na i) (while_16_1_161_abs i4 vacker_1 i3 vacker_0 i2 vacker_11 i2 vacker_11 Nb Na i) (while_16_1_161_abs i4 vacker_1 i4 vacker_1 i1 vacker_01 i1 vacker_01 Nb Na i) (while_16_1_161_abs i4 vacker_1 i4 vacker_1 i1 vacker_01 i2 vacker_11 Nb Na i) (while_16_1_161_abs i4 vacker_1 i4 vacker_1 i2 vacker_11 i1 vacker_01 Nb Na i) (while_16_1_161_abs i4 vacker_1 i4 vacker_1 i2 vacker_11 i2 vacker_11 Nb Na i) (< i (+ Na Nb))) (assert_17_12_132_abs i4 vacker_1 i3 vacker_0 i2 vacker_11 i1 vacker_01 Nb Na i))))
(assert (forall ( (vacker_1 Int) (vacker_0 Int) (vacker_11 Int) (vacker_01 Int) (Nb Int) (Na Int) (i Int) (i1 Int) (i2 Int) (i3 Int) (i4 Int)) (=> (and (=> (= i3 i4) (= vacker_0 vacker_1)) (=> (= i1 i2) (= vacker_01 vacker_11)) (while_16_1_161_abs i3 vacker_0 i3 vacker_0 i1 vacker_01 i1 vacker_01 Nb Na i) (while_16_1_161_abs i3 vacker_0 i3 vacker_0 i1 vacker_01 i2 vacker_11 Nb Na i) (while_16_1_161_abs i3 vacker_0 i3 vacker_0 i2 vacker_11 i1 vacker_01 Nb Na i) (while_16_1_161_abs i3 vacker_0 i3 vacker_0 i2 vacker_11 i2 vacker_11 Nb Na i) (while_16_1_161_abs i3 vacker_0 i4 vacker_1 i1 vacker_01 i1 vacker_01 Nb Na i) (while_16_1_161_abs i3 vacker_0 i4 vacker_1 i1 vacker_01 i2 vacker_11 Nb Na i) (while_16_1_161_abs i3 vacker_0 i4 vacker_1 i2 vacker_11 i1 vacker_01 Nb Na i) (while_16_1_161_abs i3 vacker_0 i4 vacker_1 i2 vacker_11 i2 vacker_11 Nb Na i) (while_16_1_161_abs i4 vacker_1 i3 vacker_0 i1 vacker_01 i1 vacker_01 Nb Na i) (while_16_1_161_abs i4 vacker_1 i3 vacker_0 i1 vacker_01 i2 vacker_11 Nb Na i) (while_16_1_161_abs i4 vacker_1 i3 vacker_0 i2 vacker_11 i1 vacker_01 Nb Na i) (while_16_1_161_abs i4 vacker_1 i3 vacker_0 i2 vacker_11 i2 vacker_11 Nb Na i) (while_16_1_161_abs i4 vacker_1 i4 vacker_1 i1 vacker_01 i1 vacker_01 Nb Na i) (while_16_1_161_abs i4 vacker_1 i4 vacker_1 i1 vacker_01 i2 vacker_11 Nb Na i) (while_16_1_161_abs i4 vacker_1 i4 vacker_1 i2 vacker_11 i1 vacker_01 Nb Na i) (while_16_1_161_abs i4 vacker_1 i4 vacker_1 i2 vacker_11 i2 vacker_11 Nb Na i) (not (< i (+ Na Nb)))) (assert_21_8_200_abs i4 vacker_1 i3 vacker_0 i2 vacker_11 i1 vacker_01 Nb Na i))))
;
;(assert)  (((Na<=k)&&(k<i))=>(a[k]==b[(k-Na)]))
(assert (forall ( (k Int) (i Int) (Na Int) (Nb Int) (acker1 Int) (acker Int)) (=> (and (assert_17_12_132_abs (- k Na) acker (- k Na) acker k acker1 k acker1 Nb Na i) (<= Na k) (< k i)) (= acker acker1))))
(assert (forall ( (i Int) (Na Int) (Nb Int) (vacker_1 Int) (vacker_0 Int) (vacker_11 Int) (vacker_01 Int) (i1 Int) (i2 Int) (i3 Int) (i4 Int)) (=> (and (=> (= i1 i2) (= vacker_0 vacker_1)) (=> (= i3 i4) (= vacker_01 vacker_11)) (assert_17_12_132_abs i3 vacker_01 i3 vacker_01 i1 vacker_0 i1 vacker_0 Nb Na i) (assert_17_12_132_abs i3 vacker_01 i3 vacker_01 i1 vacker_0 i2 vacker_1 Nb Na i) (assert_17_12_132_abs i3 vacker_01 i3 vacker_01 i2 vacker_1 i1 vacker_0 Nb Na i) (assert_17_12_132_abs i3 vacker_01 i3 vacker_01 i2 vacker_1 i2 vacker_1 Nb Na i) (assert_17_12_132_abs i3 vacker_01 i4 vacker_11 i1 vacker_0 i1 vacker_0 Nb Na i) (assert_17_12_132_abs i3 vacker_01 i4 vacker_11 i1 vacker_0 i2 vacker_1 Nb Na i) (assert_17_12_132_abs i3 vacker_01 i4 vacker_11 i2 vacker_1 i1 vacker_0 Nb Na i) (assert_17_12_132_abs i3 vacker_01 i4 vacker_11 i2 vacker_1 i2 vacker_1 Nb Na i) (assert_17_12_132_abs i4 vacker_11 i3 vacker_01 i1 vacker_0 i1 vacker_0 Nb Na i) (assert_17_12_132_abs i4 vacker_11 i3 vacker_01 i1 vacker_0 i2 vacker_1 Nb Na i) (assert_17_12_132_abs i4 vacker_11 i3 vacker_01 i2 vacker_1 i1 vacker_0 Nb Na i) (assert_17_12_132_abs i4 vacker_11 i3 vacker_01 i2 vacker_1 i2 vacker_1 Nb Na i) (assert_17_12_132_abs i4 vacker_11 i4 vacker_11 i1 vacker_0 i1 vacker_0 Nb Na i) (assert_17_12_132_abs i4 vacker_11 i4 vacker_11 i1 vacker_0 i2 vacker_1 Nb Na i) (assert_17_12_132_abs i4 vacker_11 i4 vacker_11 i2 vacker_1 i1 vacker_0 Nb Na i) (assert_17_12_132_abs i4 vacker_11 i4 vacker_11 i2 vacker_1 i2 vacker_1 Nb Na i)) (arrayassign_18_5_149_abs i4 vacker_11 i3 vacker_01 i2 vacker_1 i1 vacker_0 Nb Na i))))
;
;(aassign) a[i] := b[(i-Na)]
(assert (forall ( (i Int) (Na Int) (Nb Int) (vacker_1 Int) (vacker_0 Int) (vacker_2 Int) (vacker_11 Int) (vacker_01 Int) (i1 Int) (i2 Int) (i3 Int) (i4 Int)) (=> (and (=> (= i1 i2) (= vacker_0 vacker_1)) (=> (= (- i Na) i3) (= vacker_01 vacker_11)) (=> (= (- i Na) i4) (= vacker_01 vacker_2)) (=> (= i3 i4) (= vacker_11 vacker_2)) (arrayassign_18_5_149_abs (- i Na) vacker_01 (- i Na) vacker_01 i1 vacker_0 i1 vacker_0 Nb Na i) (arrayassign_18_5_149_abs (- i Na) vacker_01 (- i Na) vacker_01 i1 vacker_0 i2 vacker_1 Nb Na i) (arrayassign_18_5_149_abs (- i Na) vacker_01 (- i Na) vacker_01 i2 vacker_1 i1 vacker_0 Nb Na i) (arrayassign_18_5_149_abs (- i Na) vacker_01 (- i Na) vacker_01 i2 vacker_1 i2 vacker_1 Nb Na i) (arrayassign_18_5_149_abs (- i Na) vacker_01 i3 vacker_11 i1 vacker_0 i1 vacker_0 Nb Na i) (arrayassign_18_5_149_abs (- i Na) vacker_01 i3 vacker_11 i1 vacker_0 i2 vacker_1 Nb Na i) (arrayassign_18_5_149_abs (- i Na) vacker_01 i3 vacker_11 i2 vacker_1 i1 vacker_0 Nb Na i) (arrayassign_18_5_149_abs (- i Na) vacker_01 i3 vacker_11 i2 vacker_1 i2 vacker_1 Nb Na i) (arrayassign_18_5_149_abs (- i Na) vacker_01 i4 vacker_2 i1 vacker_0 i1 vacker_0 Nb Na i) (arrayassign_18_5_149_abs (- i Na) vacker_01 i4 vacker_2 i1 vacker_0 i2 vacker_1 Nb Na i) (arrayassign_18_5_149_abs (- i Na) vacker_01 i4 vacker_2 i2 vacker_1 i1 vacker_0 Nb Na i) (arrayassign_18_5_149_abs (- i Na) vacker_01 i4 vacker_2 i2 vacker_1 i2 vacker_1 Nb Na i) (arrayassign_18_5_149_abs i3 vacker_11 (- i Na) vacker_01 i1 vacker_0 i1 vacker_0 Nb Na i) (arrayassign_18_5_149_abs i3 vacker_11 (- i Na) vacker_01 i1 vacker_0 i2 vacker_1 Nb Na i) (arrayassign_18_5_149_abs i3 vacker_11 (- i Na) vacker_01 i2 vacker_1 i1 vacker_0 Nb Na i) (arrayassign_18_5_149_abs i3 vacker_11 (- i Na) vacker_01 i2 vacker_1 i2 vacker_1 Nb Na i) (arrayassign_18_5_149_abs i3 vacker_11 i3 vacker_11 i1 vacker_0 i1 vacker_0 Nb Na i) (arrayassign_18_5_149_abs i3 vacker_11 i3 vacker_11 i1 vacker_0 i2 vacker_1 Nb Na i) (arrayassign_18_5_149_abs i3 vacker_11 i3 vacker_11 i2 vacker_1 i1 vacker_0 Nb Na i) (arrayassign_18_5_149_abs i3 vacker_11 i3 vacker_11 i2 vacker_1 i2 vacker_1 Nb Na i) (arrayassign_18_5_149_abs i3 vacker_11 i4 vacker_2 i1 vacker_0 i1 vacker_0 Nb Na i) (arrayassign_18_5_149_abs i3 vacker_11 i4 vacker_2 i1 vacker_0 i2 vacker_1 Nb Na i) (arrayassign_18_5_149_abs i3 vacker_11 i4 vacker_2 i2 vacker_1 i1 vacker_0 Nb Na i) (arrayassign_18_5_149_abs i3 vacker_11 i4 vacker_2 i2 vacker_1 i2 vacker_1 Nb Na i) (arrayassign_18_5_149_abs i4 vacker_2 (- i Na) vacker_01 i1 vacker_0 i1 vacker_0 Nb Na i) (arrayassign_18_5_149_abs i4 vacker_2 (- i Na) vacker_01 i1 vacker_0 i2 vacker_1 Nb Na i) (arrayassign_18_5_149_abs i4 vacker_2 (- i Na) vacker_01 i2 vacker_1 i1 vacker_0 Nb Na i) (arrayassign_18_5_149_abs i4 vacker_2 (- i Na) vacker_01 i2 vacker_1 i2 vacker_1 Nb Na i) (arrayassign_18_5_149_abs i4 vacker_2 i3 vacker_11 i1 vacker_0 i1 vacker_0 Nb Na i) (arrayassign_18_5_149_abs i4 vacker_2 i3 vacker_11 i1 vacker_0 i2 vacker_1 Nb Na i) (arrayassign_18_5_149_abs i4 vacker_2 i3 vacker_11 i2 vacker_1 i1 vacker_0 Nb Na i) (arrayassign_18_5_149_abs i4 vacker_2 i3 vacker_11 i2 vacker_1 i2 vacker_1 Nb Na i) (arrayassign_18_5_149_abs i4 vacker_2 i4 vacker_2 i1 vacker_0 i1 vacker_0 Nb Na i) (arrayassign_18_5_149_abs i4 vacker_2 i4 vacker_2 i1 vacker_0 i2 vacker_1 Nb Na i) (arrayassign_18_5_149_abs i4 vacker_2 i4 vacker_2 i2 vacker_1 i1 vacker_0 Nb Na i) (arrayassign_18_5_149_abs i4 vacker_2 i4 vacker_2 i2 vacker_1 i2 vacker_1 Nb Na i)) (assign_19_5_158_abs i4 vacker_2 i3 vacker_11 i2 (ite (= i i2) vacker_01 vacker_1) i1 (ite (= i i1) vacker_01 vacker_0) Nb Na i))))
;
;(assign)  i := (i+1)
(assert (forall ( (i Int) (Na Int) (Nb Int) (vacker_1 Int) (vacker_0 Int) (vacker_11 Int) (vacker_01 Int) (i1 Int) (i2 Int) (i3 Int) (i4 Int)) (=> (and (=> (= i1 i2) (= vacker_0 vacker_1)) (=> (= i3 i4) (= vacker_01 vacker_11)) (assign_19_5_158_abs i3 vacker_01 i3 vacker_01 i1 vacker_0 i1 vacker_0 Nb Na i) (assign_19_5_158_abs i3 vacker_01 i3 vacker_01 i1 vacker_0 i2 vacker_1 Nb Na i) (assign_19_5_158_abs i3 vacker_01 i3 vacker_01 i2 vacker_1 i1 vacker_0 Nb Na i) (assign_19_5_158_abs i3 vacker_01 i3 vacker_01 i2 vacker_1 i2 vacker_1 Nb Na i) (assign_19_5_158_abs i3 vacker_01 i4 vacker_11 i1 vacker_0 i1 vacker_0 Nb Na i) (assign_19_5_158_abs i3 vacker_01 i4 vacker_11 i1 vacker_0 i2 vacker_1 Nb Na i) (assign_19_5_158_abs i3 vacker_01 i4 vacker_11 i2 vacker_1 i1 vacker_0 Nb Na i) (assign_19_5_158_abs i3 vacker_01 i4 vacker_11 i2 vacker_1 i2 vacker_1 Nb Na i) (assign_19_5_158_abs i4 vacker_11 i3 vacker_01 i1 vacker_0 i1 vacker_0 Nb Na i) (assign_19_5_158_abs i4 vacker_11 i3 vacker_01 i1 vacker_0 i2 vacker_1 Nb Na i) (assign_19_5_158_abs i4 vacker_11 i3 vacker_01 i2 vacker_1 i1 vacker_0 Nb Na i) (assign_19_5_158_abs i4 vacker_11 i3 vacker_01 i2 vacker_1 i2 vacker_1 Nb Na i) (assign_19_5_158_abs i4 vacker_11 i4 vacker_11 i1 vacker_0 i1 vacker_0 Nb Na i) (assign_19_5_158_abs i4 vacker_11 i4 vacker_11 i1 vacker_0 i2 vacker_1 Nb Na i) (assign_19_5_158_abs i4 vacker_11 i4 vacker_11 i2 vacker_1 i1 vacker_0 Nb Na i) (assign_19_5_158_abs i4 vacker_11 i4 vacker_11 i2 vacker_1 i2 vacker_1 Nb Na i)) (while_16_1_161_abs i4 vacker_11 i3 vacker_01 i2 vacker_1 i1 vacker_0 Nb Na (+ i 1)))))
;
;(assert)  (((Na<=k)&&(k<(Na+Nb)))=>(a[k]==b[(k-Na)]))
(assert (forall ( (k Int) (i Int) (Na Int) (Nb Int) (acker1 Int) (acker Int)) (=> (and (assert_21_8_200_abs (- k Na) acker (- k Na) acker k acker1 k acker1 Nb Na i) (<= Na k) (< k (+ Na Nb))) (= acker acker1))))
(assert (forall ( (i Int) (Na Int) (Nb Int) (vacker_1 Int) (vacker_0 Int) (vacker_11 Int) (vacker_01 Int) (i1 Int) (i2 Int) (i3 Int) (i4 Int)) (=> (and (=> (= i1 i2) (= vacker_0 vacker_1)) (=> (= i3 i4) (= vacker_01 vacker_11)) (assert_21_8_200_abs i3 vacker_01 i3 vacker_01 i1 vacker_0 i1 vacker_0 Nb Na i) (assert_21_8_200_abs i3 vacker_01 i3 vacker_01 i1 vacker_0 i2 vacker_1 Nb Na i) (assert_21_8_200_abs i3 vacker_01 i3 vacker_01 i2 vacker_1 i1 vacker_0 Nb Na i) (assert_21_8_200_abs i3 vacker_01 i3 vacker_01 i2 vacker_1 i2 vacker_1 Nb Na i) (assert_21_8_200_abs i3 vacker_01 i4 vacker_11 i1 vacker_0 i1 vacker_0 Nb Na i) (assert_21_8_200_abs i3 vacker_01 i4 vacker_11 i1 vacker_0 i2 vacker_1 Nb Na i) (assert_21_8_200_abs i3 vacker_01 i4 vacker_11 i2 vacker_1 i1 vacker_0 Nb Na i) (assert_21_8_200_abs i3 vacker_01 i4 vacker_11 i2 vacker_1 i2 vacker_1 Nb Na i) (assert_21_8_200_abs i4 vacker_11 i3 vacker_01 i1 vacker_0 i1 vacker_0 Nb Na i) (assert_21_8_200_abs i4 vacker_11 i3 vacker_01 i1 vacker_0 i2 vacker_1 Nb Na i) (assert_21_8_200_abs i4 vacker_11 i3 vacker_01 i2 vacker_1 i1 vacker_0 Nb Na i) (assert_21_8_200_abs i4 vacker_11 i3 vacker_01 i2 vacker_1 i2 vacker_1 Nb Na i) (assert_21_8_200_abs i4 vacker_11 i4 vacker_11 i1 vacker_0 i1 vacker_0 Nb Na i) (assert_21_8_200_abs i4 vacker_11 i4 vacker_11 i1 vacker_0 i2 vacker_1 Nb Na i) (assert_21_8_200_abs i4 vacker_11 i4 vacker_11 i2 vacker_1 i1 vacker_0 Nb Na i) (assert_21_8_200_abs i4 vacker_11 i4 vacker_11 i2 vacker_1 i2 vacker_1 Nb Na i)) (assign_23_8_206_abs i4 vacker_11 i3 vacker_01 i2 vacker_1 i1 vacker_0 Nb Na i))))
;
;(assign)  i := Na
(assert (forall ( (i Int) (Na Int) (Nb Int) (vacker_1 Int) (vacker_0 Int) (vacker_11 Int) (vacker_01 Int) (i1 Int) (i2 Int) (i3 Int) (i4 Int)) (=> (and (=> (= i1 i2) (= vacker_0 vacker_1)) (=> (= i3 i4) (= vacker_01 vacker_11)) (assign_23_8_206_abs i3 vacker_01 i3 vacker_01 i1 vacker_0 i1 vacker_0 Nb Na i) (assign_23_8_206_abs i3 vacker_01 i3 vacker_01 i1 vacker_0 i2 vacker_1 Nb Na i) (assign_23_8_206_abs i3 vacker_01 i3 vacker_01 i2 vacker_1 i1 vacker_0 Nb Na i) (assign_23_8_206_abs i3 vacker_01 i3 vacker_01 i2 vacker_1 i2 vacker_1 Nb Na i) (assign_23_8_206_abs i3 vacker_01 i4 vacker_11 i1 vacker_0 i1 vacker_0 Nb Na i) (assign_23_8_206_abs i3 vacker_01 i4 vacker_11 i1 vacker_0 i2 vacker_1 Nb Na i) (assign_23_8_206_abs i3 vacker_01 i4 vacker_11 i2 vacker_1 i1 vacker_0 Nb Na i) (assign_23_8_206_abs i3 vacker_01 i4 vacker_11 i2 vacker_1 i2 vacker_1 Nb Na i) (assign_23_8_206_abs i4 vacker_11 i3 vacker_01 i1 vacker_0 i1 vacker_0 Nb Na i) (assign_23_8_206_abs i4 vacker_11 i3 vacker_01 i1 vacker_0 i2 vacker_1 Nb Na i) (assign_23_8_206_abs i4 vacker_11 i3 vacker_01 i2 vacker_1 i1 vacker_0 Nb Na i) (assign_23_8_206_abs i4 vacker_11 i3 vacker_01 i2 vacker_1 i2 vacker_1 Nb Na i) (assign_23_8_206_abs i4 vacker_11 i4 vacker_11 i1 vacker_0 i1 vacker_0 Nb Na i) (assign_23_8_206_abs i4 vacker_11 i4 vacker_11 i1 vacker_0 i2 vacker_1 Nb Na i) (assign_23_8_206_abs i4 vacker_11 i4 vacker_11 i2 vacker_1 i1 vacker_0 Nb Na i) (assign_23_8_206_abs i4 vacker_11 i4 vacker_11 i2 vacker_1 i2 vacker_1 Nb Na i)) (while_24_1_289_abs i4 vacker_11 i3 vacker_01 i2 vacker_1 i1 vacker_0 Nb Na Na))))
;
;(while)   while((i<(Na+Nb)))
(assert (forall ( (vacker_1 Int) (vacker_0 Int) (vacker_11 Int) (vacker_01 Int) (Nb Int) (Na Int) (i Int) (i1 Int) (i2 Int) (i3 Int) (i4 Int)) (=> (and (=> (= i3 i4) (= vacker_0 vacker_1)) (=> (= i1 i2) (= vacker_01 vacker_11)) (while_24_1_289_abs i3 vacker_0 i3 vacker_0 i1 vacker_01 i1 vacker_01 Nb Na i) (while_24_1_289_abs i3 vacker_0 i3 vacker_0 i1 vacker_01 i2 vacker_11 Nb Na i) (while_24_1_289_abs i3 vacker_0 i3 vacker_0 i2 vacker_11 i1 vacker_01 Nb Na i) (while_24_1_289_abs i3 vacker_0 i3 vacker_0 i2 vacker_11 i2 vacker_11 Nb Na i) (while_24_1_289_abs i3 vacker_0 i4 vacker_1 i1 vacker_01 i1 vacker_01 Nb Na i) (while_24_1_289_abs i3 vacker_0 i4 vacker_1 i1 vacker_01 i2 vacker_11 Nb Na i) (while_24_1_289_abs i3 vacker_0 i4 vacker_1 i2 vacker_11 i1 vacker_01 Nb Na i) (while_24_1_289_abs i3 vacker_0 i4 vacker_1 i2 vacker_11 i2 vacker_11 Nb Na i) (while_24_1_289_abs i4 vacker_1 i3 vacker_0 i1 vacker_01 i1 vacker_01 Nb Na i) (while_24_1_289_abs i4 vacker_1 i3 vacker_0 i1 vacker_01 i2 vacker_11 Nb Na i) (while_24_1_289_abs i4 vacker_1 i3 vacker_0 i2 vacker_11 i1 vacker_01 Nb Na i) (while_24_1_289_abs i4 vacker_1 i3 vacker_0 i2 vacker_11 i2 vacker_11 Nb Na i) (while_24_1_289_abs i4 vacker_1 i4 vacker_1 i1 vacker_01 i1 vacker_01 Nb Na i) (while_24_1_289_abs i4 vacker_1 i4 vacker_1 i1 vacker_01 i2 vacker_11 Nb Na i) (while_24_1_289_abs i4 vacker_1 i4 vacker_1 i2 vacker_11 i1 vacker_01 Nb Na i) (while_24_1_289_abs i4 vacker_1 i4 vacker_1 i2 vacker_11 i2 vacker_11 Nb Na i) (< i (+ Na Nb))) (assert_25_11_256_abs i4 vacker_1 i3 vacker_0 i2 vacker_11 i1 vacker_01 Nb Na i))))
(assert (forall ( (vacker_1 Int) (vacker_0 Int) (vacker_11 Int) (vacker_01 Int) (Nb Int) (Na Int) (i Int) (i1 Int) (i2 Int) (i3 Int) (i4 Int)) (=> (and (=> (= i3 i4) (= vacker_0 vacker_1)) (=> (= i1 i2) (= vacker_01 vacker_11)) (while_24_1_289_abs i3 vacker_0 i3 vacker_0 i1 vacker_01 i1 vacker_01 Nb Na i) (while_24_1_289_abs i3 vacker_0 i3 vacker_0 i1 vacker_01 i2 vacker_11 Nb Na i) (while_24_1_289_abs i3 vacker_0 i3 vacker_0 i2 vacker_11 i1 vacker_01 Nb Na i) (while_24_1_289_abs i3 vacker_0 i3 vacker_0 i2 vacker_11 i2 vacker_11 Nb Na i) (while_24_1_289_abs i3 vacker_0 i4 vacker_1 i1 vacker_01 i1 vacker_01 Nb Na i) (while_24_1_289_abs i3 vacker_0 i4 vacker_1 i1 vacker_01 i2 vacker_11 Nb Na i) (while_24_1_289_abs i3 vacker_0 i4 vacker_1 i2 vacker_11 i1 vacker_01 Nb Na i) (while_24_1_289_abs i3 vacker_0 i4 vacker_1 i2 vacker_11 i2 vacker_11 Nb Na i) (while_24_1_289_abs i4 vacker_1 i3 vacker_0 i1 vacker_01 i1 vacker_01 Nb Na i) (while_24_1_289_abs i4 vacker_1 i3 vacker_0 i1 vacker_01 i2 vacker_11 Nb Na i) (while_24_1_289_abs i4 vacker_1 i3 vacker_0 i2 vacker_11 i1 vacker_01 Nb Na i) (while_24_1_289_abs i4 vacker_1 i3 vacker_0 i2 vacker_11 i2 vacker_11 Nb Na i) (while_24_1_289_abs i4 vacker_1 i4 vacker_1 i1 vacker_01 i1 vacker_01 Nb Na i) (while_24_1_289_abs i4 vacker_1 i4 vacker_1 i1 vacker_01 i2 vacker_11 Nb Na i) (while_24_1_289_abs i4 vacker_1 i4 vacker_1 i2 vacker_11 i1 vacker_01 Nb Na i) (while_24_1_289_abs i4 vacker_1 i4 vacker_1 i2 vacker_11 i2 vacker_11 Nb Na i) (not (< i (+ Na Nb)))) (end_abs i4 vacker_1 i3 vacker_0 i2 vacker_11 i1 vacker_01 Nb Na i))))
;
;(assert)  (((Na<=k)&&(k<(Na+Nb)))=>(a[k]==b[(k-Na)]))
(assert (forall ( (k Int) (i Int) (Na Int) (Nb Int) (acker1 Int) (acker Int)) (=> (and (assert_25_11_256_abs (- k Na) acker (- k Na) acker k acker1 k acker1 Nb Na i) (<= Na k) (< k (+ Na Nb))) (= acker acker1))))
(assert (forall ( (i Int) (Na Int) (Nb Int) (vacker_1 Int) (vacker_0 Int) (vacker_11 Int) (vacker_01 Int) (i1 Int) (i2 Int) (i3 Int) (i4 Int)) (=> (and (=> (= i1 i2) (= vacker_0 vacker_1)) (=> (= i3 i4) (= vacker_01 vacker_11)) (assert_25_11_256_abs i3 vacker_01 i3 vacker_01 i1 vacker_0 i1 vacker_0 Nb Na i) (assert_25_11_256_abs i3 vacker_01 i3 vacker_01 i1 vacker_0 i2 vacker_1 Nb Na i) (assert_25_11_256_abs i3 vacker_01 i3 vacker_01 i2 vacker_1 i1 vacker_0 Nb Na i) (assert_25_11_256_abs i3 vacker_01 i3 vacker_01 i2 vacker_1 i2 vacker_1 Nb Na i) (assert_25_11_256_abs i3 vacker_01 i4 vacker_11 i1 vacker_0 i1 vacker_0 Nb Na i) (assert_25_11_256_abs i3 vacker_01 i4 vacker_11 i1 vacker_0 i2 vacker_1 Nb Na i) (assert_25_11_256_abs i3 vacker_01 i4 vacker_11 i2 vacker_1 i1 vacker_0 Nb Na i) (assert_25_11_256_abs i3 vacker_01 i4 vacker_11 i2 vacker_1 i2 vacker_1 Nb Na i) (assert_25_11_256_abs i4 vacker_11 i3 vacker_01 i1 vacker_0 i1 vacker_0 Nb Na i) (assert_25_11_256_abs i4 vacker_11 i3 vacker_01 i1 vacker_0 i2 vacker_1 Nb Na i) (assert_25_11_256_abs i4 vacker_11 i3 vacker_01 i2 vacker_1 i1 vacker_0 Nb Na i) (assert_25_11_256_abs i4 vacker_11 i3 vacker_01 i2 vacker_1 i2 vacker_1 Nb Na i) (assert_25_11_256_abs i4 vacker_11 i4 vacker_11 i1 vacker_0 i1 vacker_0 Nb Na i) (assert_25_11_256_abs i4 vacker_11 i4 vacker_11 i1 vacker_0 i2 vacker_1 Nb Na i) (assert_25_11_256_abs i4 vacker_11 i4 vacker_11 i2 vacker_1 i1 vacker_0 Nb Na i) (assert_25_11_256_abs i4 vacker_11 i4 vacker_11 i2 vacker_1 i2 vacker_1 Nb Na i)) (assert_26_11_277_abs i4 vacker_11 i3 vacker_01 i2 vacker_1 i1 vacker_0 Nb Na i))))
;
;(assert)  (a[i]==b[(i-Na)])
(assert (forall ( (i Int) (Na Int) (Nb Int) (acker1 Int) (acker Int)) (=> (assert_26_11_277_abs (- i Na) acker (- i Na) acker i acker1 i acker1 Nb Na i) (= acker acker1))))
(assert (forall ( (i Int) (Na Int) (Nb Int) (vacker_1 Int) (vacker_0 Int) (vacker_11 Int) (vacker_01 Int) (i1 Int) (i2 Int) (i3 Int) (i4 Int)) (=> (and (=> (= i1 i2) (= vacker_0 vacker_1)) (=> (= i3 i4) (= vacker_01 vacker_11)) (assert_26_11_277_abs i3 vacker_01 i3 vacker_01 i1 vacker_0 i1 vacker_0 Nb Na i) (assert_26_11_277_abs i3 vacker_01 i3 vacker_01 i1 vacker_0 i2 vacker_1 Nb Na i) (assert_26_11_277_abs i3 vacker_01 i3 vacker_01 i2 vacker_1 i1 vacker_0 Nb Na i) (assert_26_11_277_abs i3 vacker_01 i3 vacker_01 i2 vacker_1 i2 vacker_1 Nb Na i) (assert_26_11_277_abs i3 vacker_01 i4 vacker_11 i1 vacker_0 i1 vacker_0 Nb Na i) (assert_26_11_277_abs i3 vacker_01 i4 vacker_11 i1 vacker_0 i2 vacker_1 Nb Na i) (assert_26_11_277_abs i3 vacker_01 i4 vacker_11 i2 vacker_1 i1 vacker_0 Nb Na i) (assert_26_11_277_abs i3 vacker_01 i4 vacker_11 i2 vacker_1 i2 vacker_1 Nb Na i) (assert_26_11_277_abs i4 vacker_11 i3 vacker_01 i1 vacker_0 i1 vacker_0 Nb Na i) (assert_26_11_277_abs i4 vacker_11 i3 vacker_01 i1 vacker_0 i2 vacker_1 Nb Na i) (assert_26_11_277_abs i4 vacker_11 i3 vacker_01 i2 vacker_1 i1 vacker_0 Nb Na i) (assert_26_11_277_abs i4 vacker_11 i3 vacker_01 i2 vacker_1 i2 vacker_1 Nb Na i) (assert_26_11_277_abs i4 vacker_11 i4 vacker_11 i1 vacker_0 i1 vacker_0 Nb Na i) (assert_26_11_277_abs i4 vacker_11 i4 vacker_11 i1 vacker_0 i2 vacker_1 Nb Na i) (assert_26_11_277_abs i4 vacker_11 i4 vacker_11 i2 vacker_1 i1 vacker_0 Nb Na i) (assert_26_11_277_abs i4 vacker_11 i4 vacker_11 i2 vacker_1 i2 vacker_1 Nb Na i)) (assign_27_11_286_abs i4 vacker_11 i3 vacker_01 i2 vacker_1 i1 vacker_0 Nb Na i))))
;
;(assign)  i := (i+1)
(assert (forall ( (i Int) (Na Int) (Nb Int) (vacker_1 Int) (vacker_0 Int) (vacker_11 Int) (vacker_01 Int) (i1 Int) (i2 Int) (i3 Int) (i4 Int)) (=> (and (=> (= i1 i2) (= vacker_0 vacker_1)) (=> (= i3 i4) (= vacker_01 vacker_11)) (assign_27_11_286_abs i3 vacker_01 i3 vacker_01 i1 vacker_0 i1 vacker_0 Nb Na i) (assign_27_11_286_abs i3 vacker_01 i3 vacker_01 i1 vacker_0 i2 vacker_1 Nb Na i) (assign_27_11_286_abs i3 vacker_01 i3 vacker_01 i2 vacker_1 i1 vacker_0 Nb Na i) (assign_27_11_286_abs i3 vacker_01 i3 vacker_01 i2 vacker_1 i2 vacker_1 Nb Na i) (assign_27_11_286_abs i3 vacker_01 i4 vacker_11 i1 vacker_0 i1 vacker_0 Nb Na i) (assign_27_11_286_abs i3 vacker_01 i4 vacker_11 i1 vacker_0 i2 vacker_1 Nb Na i) (assign_27_11_286_abs i3 vacker_01 i4 vacker_11 i2 vacker_1 i1 vacker_0 Nb Na i) (assign_27_11_286_abs i3 vacker_01 i4 vacker_11 i2 vacker_1 i2 vacker_1 Nb Na i) (assign_27_11_286_abs i4 vacker_11 i3 vacker_01 i1 vacker_0 i1 vacker_0 Nb Na i) (assign_27_11_286_abs i4 vacker_11 i3 vacker_01 i1 vacker_0 i2 vacker_1 Nb Na i) (assign_27_11_286_abs i4 vacker_11 i3 vacker_01 i2 vacker_1 i1 vacker_0 Nb Na i) (assign_27_11_286_abs i4 vacker_11 i3 vacker_01 i2 vacker_1 i2 vacker_1 Nb Na i) (assign_27_11_286_abs i4 vacker_11 i4 vacker_11 i1 vacker_0 i1 vacker_0 Nb Na i) (assign_27_11_286_abs i4 vacker_11 i4 vacker_11 i1 vacker_0 i2 vacker_1 Nb Na i) (assign_27_11_286_abs i4 vacker_11 i4 vacker_11 i2 vacker_1 i1 vacker_0 Nb Na i) (assign_27_11_286_abs i4 vacker_11 i4 vacker_11 i2 vacker_1 i2 vacker_1 Nb Na i)) (while_24_1_289_abs i4 vacker_11 i3 vacker_01 i2 vacker_1 i1 vacker_0 Nb Na (+ i 1)))))
(check-sat)
